Route #1: 53 58 40 21 73 72 74 22 41 75 56 23 67 39 4 26 12 80 68 77 76 50 28 27
Route #2: 13 94 95 97 92 59 96 99 5 60 18 52 69 1 51 9 71 65 35 34 78 81 33 79 3 29 24 25 55 54
Route #3: 83 82 48 7 88 31 70 30 20 66 32 90 63 10 62 19 11 64 49 36 47 46 8 45 17 84 93
Route #4: 2 57 15 43 42 87 37 100 91 44 14 38 86 16 61 85 98 6 89
Cost 765
